outputs/case_107.model.txt
performance_fee_exception = False
not_intentional_cross_trading = True
required_diversification_ratio = 0
regulatory_exception_for_subdelegation = False
through_central_market_or_broker = True
investment_decision_based_on_analysis = True
investment_diversification_ratio = 10
confidentiality_maintained = True
compensation_obligation = True
self_dealing_or_cross_trading = False
subdelegation_or_transfer_of_fiduciary_contract = False
profit_loss_sharing_agreement = False
record_retention_period = 0
no_other_law_or_regulation = True
reasonable_explanation_provided = False
qualified_internal_audit_staff_assigned = True
internal_control_system_change_completed_within_deadline = True
internal_control_system_established = True
manager_appointment_and_removal_defined = True
reporting_system_defined = True
internal_control_written = True
internal_control_deficiencies_reported_on_time = True
violation_of_article_19_1 = False
internal_control_organization_defined = True
major_fraud_or_suspected_fraud_occurred = False
internal_control_system_approved_by_board = True
manager_authority_and_salary_policy_defined = True
internal_control_system_continuously_reviewed = True
violation_of_law_or_contract = False
internal_control_deficiencies_improved_per_auditor_recommendations = True
investment_decision_record_and_review = True
decision_based_on_analysis = True
violation_of_article_59 = False
execution_recorded = True
internal_control_system_establishment_and_operation = True
internal_control_system_change_filed = True
external_financial_reporting_accurate = True
internal_control_system_special_audit_conditions = False
internal_control_system_design_and_execution = True
investment_decision_for_fiduciary_assets = True
internal_control_system_change_approved_by_board = True
internal_control_system_established_and_executed = True
control_operation_recorded = True
other_conditions_requiring_special_audit = False
use_of_insider_info_for_own_or_others = False
prohibited_acts_in_fiduciary_investment = True
good_faith_execution = True
order_compliance = True
unauthorized_account_transfer_of_trades = False
other_acts_affecting_business_or_client_rights = False
confidentiality_obligation = True
internal_control_self_assessment_done = True
contract_compliance = True
internal_control_system_executed = True
appropriate_authority_and_responsibility_defined = True
diversified_investment_requirement = True
liability_for_damage = True
transactions_damaging_client_interests = False
use_of_client_account_for_own_or_others = False
monthly_review_submitted = True
law_compliance = True
internal_control_system_executed_according_to_law_and_articles = True
annual_audit_plan_executed_on_time = True
internal_control_system_change_reported = True
prohibited_acts_by_responsible_personnel = True
analysis_reasonable = True
penalty = False
business_duty_of_care_and_loyalty = True
annual_audit_plan_reported_on_time = True